c 3 __LINUXTHREADS_OLD__
c 2 __UCLIBC_HAS_THREADS_NATIVE__
c 1 __UCLIBC_UCLINUX_BROKEN_MUNMAP__
c 4 __MALLOC__
c 7 __LINUXTHREADS_NEW__
c 6 __ARCH_USE_MMU__
c 5 __UCLIBC_HAS_THREADS__
p cnf 7 2
-6 2 -1 3 -5 -4 7 1
1 2 3 -5 -4 7 1
